p cnf 87 277
2 3 -4 0
-2 -3 -4 0
2 -3 4 0
-2 3 4 0
7 5 0
7 6 0
-5 -6 -7 0
8 -4 0
8 7 0
4 -7 -8 0
9 1 0
9 -8 0
-1 8 -9 0
-12 -13 -14 0
12 13 -14 0
-12 13 14 0
12 -13 14 0
15 2 0
15 -13 0
-2 13 -15 0
-16 14 0
-16 15 0
-14 -15 16 0
11 16 -17 0
-11 -16 -17 0
11 -16 17 0
-11 16 17 0
-18 10 0
-18 -17 0
-10 17 18 0
20 18 0
20 -19 0
-18 19 -20 0
-21 -9 0
-21 -20 0
9 20 21 0
-22 -15 -23 0
22 15 -23 0
-22 15 23 0
22 -15 23 0
12 23 -24 0
-12 -23 -24 0
12 -23 24 0
-12 23 24 0
-26 25 0
-26 6 0
-25 -6 26 0
26 5 -27 0
-26 -5 -27 0
26 -5 27 0
-26 5 27 0
-28 -27 0
-28 3 0
27 -3 28 0
-19 29 -30 0
19 -29 -30 0
-19 -29 30 0
19 29 30 0
31 -28 0
31 30 0
28 -30 -31 0
32 31 0
32 16 0
-31 -16 -32 0
-24 -32 -33 0
24 32 -33 0
-24 32 33 0
24 -32 33 0
-34 11 -35 0
34 -11 -35 0
-34 -11 35 0
34 11 35 0
-6 23 -36 0
6 -23 -36 0
-6 -23 36 0
6 23 36 0
-35 -36 -37 0
35 36 -37 0
-35 36 37 0
35 -36 37 0
38 -33 0
38 -37 0
33 37 -38 0
-13 2 -39 0
13 -2 -39 0
-13 -2 39 0
13 2 39 0
38 -39 -40 0
-38 39 -40 0
38 39 40 0
-38 -39 40 0
-41 -14 0
-41 18 0
14 -18 41 0
41 -42 -43 0
-41 42 -43 0
41 42 43 0
-41 -42 43 0
-11 -14 -44 0
11 14 -44 0
-11 14 44 0
11 -14 44 0
45 43 0
45 -44 0
-43 44 -45 0
-46 -40 0
-46 45 0
40 -45 46 0
47 -21 0
47 -46 0
21 46 -47 0
-48 -44 0
-48 -25 0
44 25 48 0
-34 2 -49 0
34 -2 -49 0
-34 -2 49 0
34 2 49 0
16 -29 -50 0
-16 29 -50 0
16 29 50 0
-16 -29 50 0
-51 50 0
-51 4 0
-50 -4 51 0
-52 -49 0
-52 -51 0
49 51 52 0
53 48 0
53 52 0
-48 -52 -53 0
-54 -47 0
-54 53 0
47 -53 54 0
-56 -55 0
-56 -3 0
55 3 56 0
-57 -56 0
-57 19 0
56 -19 57 0
-13 -57 -58 0
13 57 -58 0
-13 57 58 0
13 -57 58 0
-59 14 0
-59 12 0
-14 -12 59 0
11 -59 -60 0
-11 59 -60 0
11 59 60 0
-11 -59 60 0
61 60 0
61 -27 0
-60 27 -61 0
-62 58 0
-62 -61 0
-58 61 62 0
63 43 0
63 -19 0
-43 19 -63 0
64 -51 0
64 -22 0
51 22 -64 0
-65 -63 0
-65 64 0
63 -64 65 0
66 62 0
66 -65 0
-62 65 -66 0
-67 28 0
-67 26 0
-28 -26 67 0
68 -66 0
68 67 0
66 -67 -68 0
69 12 0
69 -34 0
-12 34 -69 0
15 -60 -70 0
-15 60 -70 0
15 60 70 0
-15 -60 70 0
71 15 0
71 -70 0
-15 70 -71 0
-69 71 -72 0
69 -71 -72 0
-69 -71 72 0
69 71 72 0
-68 72 -73 0
68 -72 -73 0
-68 -72 73 0
68 72 73 0
-74 54 0
-74 73 0
-54 -73 74 0
75 -29 0
75 -19 0
29 19 -75 0
76 28 0
76 -10 0
-28 10 -76 0
-77 -51 0
-77 76 0
51 -76 77 0
-78 -76 0
-78 -10 0
76 10 78 0
-77 78 -79 0
77 -78 -79 0
-77 -78 79 0
77 78 79 0
80 75 0
80 -79 0
-75 79 -80 0
-27 -59 -81 0
27 59 -81 0
-27 59 81 0
27 -59 81 0
-26 81 -82 0
26 -81 -82 0
-26 -81 82 0
26 81 82 0
80 -82 -83 0
-80 82 -83 0
80 82 83 0
-80 -82 83 0
43 11 -84 0
-43 -11 -84 0
43 -11 84 0
-43 11 84 0
-85 75 0
-85 -84 0
-75 84 85 0
-86 83 0
-86 -85 0
-83 85 86 0
87 -74 0
87 86 0
74 -86 -87 0
87 57 49 -78 -59 0
62 -72 21 82 -38 26 0
-41 17 0
81 23 64 0
-57 84 51 59 -25 73 0
23 -33 0
-58 79 55 33 -50 84 0
-50 -27 39 -30 0
-80 -12 -44 0
-35 -15 13 57 9 -60 0
10 9 0
-44 32 0
15 -67 -8 -72 -9 0
-32 -11 27 38 18 0
29 45 -57 -69 0
-66 40 -36 -17 41 23 0
-69 -67 -47 0
-3 -4 65 0
12 79 45 0
13 -5 -66 -40 46 0
-9 38 24 0
14 -1 3 18 81 0
-24 26 12 -71 0
34 67 31 -49 86 0
16 -81 -5 30 -54 42 0
-81 -2 -29 -70 0
-69 -65 33 0
-14 69 18 0
-4 57 15 -68 0
24 45 -85 -39 -76 0
-81 -73 9 -54 55 66 0
48 80 -65 -40 0
54 44 59 52 0
41 2 -48 63 67 0
-2 0
-73 77 39 61 68 37 0
87 0
